c Random generated cnf formula, satisfiable: false
p cnf 10 50
8 -6 -1 0
-8 9 4 0
-9 7 8 0
-3 -4 -2 0
5 7 -9 0
6 -10 7 0
3 -1 -4 0
-10 -7 -8 0
1 5 9 0
-10 9 8 0
9 -8 -6 0
5 -8 -10 0
-1 -2 10 0
-7 -8 9 0
7 4 8 0
-7 3 2 0
-4 -8 -10 0
-10 -7 -5 0
9 -3 -10 0
4 -3 -1 0
8 10 9 0
-6 -2 -3 0
-6 3 -1 0
9 3 -7 0
-8 2 6 0
-4 10 -9 0
3 7 -1 0
6 1 -7 0
4 -2 1 0
10 1 -5 0
10 -5 8 0
-2 10 4 0
-5 2 -7 0
-7 -4 2 0
-6 -5 -4 0
6 -9 4 0
4 -9 5 0
7 6 8 0
-9 -4 2 0
5 1 9 0
4 -6 -2 0
4 -7 -9 0
-6 7 -5 0
-7 8 -2 0
-2 5 3 0
3 -9 -8 0
-7 8 10 0
-6 10 -2 0
-1 -4 -5 0
-10 -2 6 0
